ITEM = 1..45;
capacity1 = 431;
capacity2 = 431;
capacity3 = 431;
profits = [58, 35, 73, 30, 41, 26, 47, 29, 26, 89, 69, 104, 47, 68, 60, 20, 95, 38, 32, 26, 57, 20, 20, 24, 62, 23, 21, 33, 26, 43, 23, 32, 41, 25, 47, 64, 62, 58, 21, 20, 64, 22, 55, 66, 37];
weights = [48, 65, 78, 27, 71, 49, 68, 88, 55, 80, 70, 100, 74, 97, 50, 22, 86, 32, 73, 62, 51, 10, 55, 25, 96, 32, 28, 32, 21, 55, 50, 62, 82, 79, 42, 79, 74, 59, 17, 36, 65, 47, 46, 74, 74];
